c There are 17 variables and 38 clauses
c The clauses for F
p cnf 17 38
1 10 0
-1 -10 0
3 4 11 0
-3 -11 0
-4 -11 0
3 -4 12 0
3 4 -12 0
-3 4 12 0
-3 -4 -12 0
11 12 -13 0
-11 13 0
-12 13 0
-5 -13 14 0
5 -14 0
13 -14 0
2 14 15 0
-2 -15 0
-14 -15 0
-10 -15 16 0
10 -16 0
15 -16 0
-1 6 0
1 2 -6 0
-2 6 0
-3 -4 -7 0
3 7 0
4 7 0
-7 -5 8 0
7 -8 0
5 -8 0
-6 -9 0
6 8 9 0
-8 -9 0
16 -9 17 0
16 9 -17 0
-16 9 17 0
-16 -9 -17 0
17 0